32	0

0	1	2
3	1	3
10	1	4
4	1	5
10	1	6
9	1	7
9	1	8
8	1	9
9	1	10
2	1	11
7	1	12
6	1	13
3	1	14
8	1	15
10	1	16
6	1	17
7	1	18
7	1	19
5	1	20
6	1	21
8	1	22
4	1	23
4	1	24
3	1	25
2	1	26
1	1	27
1	1	28
6	1	29
1	1	30
10	1	31
2	1	32
0	0
